(declare-rel inv2 (Int Int Int Int))
(declare-rel fail ())
(declare-var A Int)
(declare-var B Int)
(declare-var C Int)
(declare-var D Int)
(declare-var E Int)
(declare-var F Int)
(declare-var G Int)
(rule (=> (and (= E 0) (= B 0) (= G 0) (> A 0) (>= 500 A)) (inv2 E B G A)))
(rule (let ((a!1 (and (inv2 E B G A)
                (= C (mod (+ E 1) 1000))
                (= F (+ B 1))
                (= D (ite (< E A) (+ G 2) G)))))
  (=> a!1 (inv2 C F D A))))
(rule (=> (and (inv2 E B G A) (= E 0) (not (= B G))) fail))
(query fail)

